33D32945 STP File, STP Format Version 1.0

SECTION Comments
Name "inst10x3_01"
Creator "Kurt Anstreicher & Marcia Fampa"
Problem "Euclidean Steiner Tree Problem"
Remark "Converted automatically"
END

SECTION Graph
Nodes 10
END

SECTION Coordinates
DDD 1 4.15374860443223 3.04998677003492 8.74367171587626 
DDD 2 0.15009498676616 7.67950390011141 9.70844939255623 
DDD 3 9.90082592613063 7.88861692233753 4.38658533770912 
DDD 4 4.98311303448480 2.13963331596166 6.43492287885350 
DDD 5 3.20035577466497 9.60098600369010 7.26631766641898 
DDD 6 4.11953208168645 7.44565783106155 2.67947250709374 
DDD 7 4.39924309565342 9.33380108189590 6.83332324338485 
DDD 8 2.12559864338737 8.39238240336195 6.28784600024074 
DDD 9 1.33772748473426 2.07132729641355 6.07198944539530 
DDD 10 6.29887848842308 3.70476826051896 5.75147779047469 
END

EOF
